(set-logic HORN)

(declare-fun state (Int Int Int (Array Int Int) Bool Bool Bool) Bool)


(assert (forall ((|!{N}| Int) (|!{i}| Int) (|!{x}| Int) (|!{a.1}| (Array Int Int)) (|!pc[0]| Bool) (|!pc[1]| Bool) (|!pc[2]| Bool))
  (=>
   (let ((.def_34 (not |!pc[2]|)))
(let ((.def_32 (not |!pc[1]|)))
(let ((.def_31 (not |!pc[0]|)))
(let ((.def_33 (and .def_31 .def_32)))
(let ((.def_35 (and .def_33 .def_34)))
.def_35)))))
   (state |!{N}| |!{i}| |!{x}| |!{a.1}| |!pc[0]| |!pc[1]| |!pc[2]|))))

(assert (forall ((|!{N}| Int) (|!{i}| Int) (|!{x}| Int) (|!{a.1}| (Array Int Int)) (|!pc[0]| Bool) (|!pc[1]| Bool) (|!pc[2]| Bool)
                 (|!{N}.next| Int) (|!{i}.next| Int) (|!{x}.next| Int) (|!{a.1}.next| (Array Int Int)) (|!pc[0].next| Bool) (|!pc[1].next| Bool) (|!pc[2].next| Bool)
                 (|%{x}#1| Int) (|%{a.1}#1| (Array Int Int)) (nd<0> Int))
  (=>
   (and (state |!{N}| |!{i}| |!{x}| |!{a.1}| |!pc[0]| |!pc[1]| |!pc[2]|)
(let ((.def_32 (not |!pc[1]|)))
(let ((.def_131 (and |!pc[0]| .def_32)))
(let ((.def_34 (not |!pc[2]|)))
(let ((.def_149 (and .def_34 .def_131)))
(let ((.def_53 (not |!pc[1].next|)))
(let ((.def_54 (and |!pc[0].next| .def_53)))
(let ((.def_133 (and |!pc[2].next| .def_54)))
(let ((.def_152 (and .def_133 .def_149)))
(let ((.def_69 (= |!{N}| |!{N}.next|)))
(let ((.def_46 (= |!{i}.next| 0)))
(let ((.def_145 (and .def_46 .def_69)))
(let ((.def_73 (= |!{x}| |!{x}.next|)))
(let ((.def_146 (and .def_73 .def_145)))
(let ((.def_75 (= |!{a.1}| |!{a.1}.next|)))
(let ((.def_147 (and .def_75 .def_146)))
(let ((.def_114 (<= |!{N}| |!{i}|)))
(let ((.def_148 (and .def_114 .def_147)))
(let ((.def_153 (and .def_148 .def_152)))
(let ((.def_55 (not |!pc[2].next|)))
(let ((.def_56 (and .def_54 .def_55)))
(let ((.def_150 (and .def_56 .def_149)))
(let ((.def_141 (store |!{a.1}| |!{i}| 42)))
(let ((.def_142 (= |!{a.1}.next| .def_141)))
(let ((.def_119 (* (- 1) |!{i}.next|)))
(let ((.def_120 (+ |!{i}| .def_119)))
(let ((.def_121 (= .def_120 (- 1))))
(let ((.def_122 (and .def_69 .def_121)))
(let ((.def_123 (and .def_73 .def_122)))
(let ((.def_143 (and .def_123 .def_142)))
(let ((.def_115 (not .def_114)))
(let ((.def_144 (and .def_115 .def_143)))
(let ((.def_151 (and .def_144 .def_150)))
(let ((.def_154 (or .def_151 .def_153)))
(let ((.def_132 (and |!pc[2]| .def_131)))
(let ((.def_97 (not |!pc[0].next|)))
(let ((.def_98 (and |!pc[1].next| .def_97)))
(let ((.def_99 (and .def_55 .def_98)))
(let ((.def_136 (and .def_99 .def_132)))
(let ((.def_127 (= |!{x}.next| 0)))
(let ((.def_71 (= |!{i}| |!{i}.next|)))
(let ((.def_78 (and .def_69 .def_71)))
(let ((.def_128 (and .def_78 .def_127)))
(let ((.def_129 (and .def_75 .def_128)))
(let ((.def_130 (and .def_114 .def_129)))
(let ((.def_137 (and .def_130 .def_136)))
(let ((.def_134 (and .def_132 .def_133)))
(let ((.def_117 (store |!{a.1}| |!{i}| 43)))
(let ((.def_124 (= |!{a.1}.next| .def_117)))
(let ((.def_125 (and .def_123 .def_124)))
(let ((.def_126 (and .def_115 .def_125)))
(let ((.def_135 (and .def_126 .def_134)))
(let ((.def_138 (or .def_135 .def_137)))
(let ((.def_109 (and |!pc[0]| |!pc[1]|)))
(let ((.def_110 (and .def_34 .def_109)))
(let ((.def_111 (and .def_99 .def_110)))
(let ((.def_80 (* (- 1) |!{x}.next|)))
(let ((.def_81 (+ |!{x}| .def_80)))
(let ((.def_82 (= .def_81 (- 1))))
(let ((.def_83 (and .def_78 .def_82)))
(let ((.def_84 (and .def_75 .def_83)))
(let ((.def_112 (and .def_84 .def_111)))
(let ((.def_103 (and .def_53 .def_97)))
(let ((.def_104 (and |!pc[2].next| .def_103)))
(let ((.def_31 (not |!pc[0]|)))
(let ((.def_91 (and |!pc[1]| .def_31)))
(let ((.def_92 (and .def_34 .def_91)))
(let ((.def_105 (and .def_92 .def_104)))
(let ((.def_59 (<= |!{N}| |!{x}|)))
(let ((.def_87 (and .def_59 .def_69)))
(let ((.def_88 (and .def_71 .def_87)))
(let ((.def_89 (and .def_73 .def_88)))
(let ((.def_90 (and .def_75 .def_89)))
(let ((.def_106 (and .def_90 .def_105)))
(let ((.def_100 (and .def_92 .def_99)))
(let ((.def_61 (select |!{a.1}| |!{x}|)))
(let ((.def_63 (= .def_61 43)))
(let ((.def_85 (and .def_63 .def_84)))
(let ((.def_60 (not .def_59)))
(let ((.def_86 (and .def_60 .def_85)))
(let ((.def_101 (and .def_86 .def_100)))
(let ((.def_93 (and |!pc[0].next| |!pc[1].next|)))
(let ((.def_94 (and .def_55 .def_93)))
(let ((.def_95 (and .def_92 .def_94)))
(let ((.def_64 (not .def_63)))
(let ((.def_70 (and .def_64 .def_69)))
(let ((.def_72 (and .def_70 .def_71)))
(let ((.def_74 (and .def_72 .def_73)))
(let ((.def_76 (and .def_74 .def_75)))
(let ((.def_77 (and .def_60 .def_76)))
(let ((.def_96 (and .def_77 .def_95)))
(let ((.def_102 (or .def_96 .def_101)))
(let ((.def_107 (or .def_102 .def_106)))
(let ((.def_33 (and .def_31 .def_32)))
(let ((.def_35 (and .def_33 .def_34)))
(let ((.def_57 (and .def_35 .def_56)))
(let ((.def_50 (= |!{a.1}.next| |%{a.1}#1|)))
(let ((.def_48 (= |!{x}.next| |%{x}#1|)))
(let ((.def_45 (= |!{N}.next| nd<0>)))
(let ((.def_47 (and .def_45 .def_46)))
(let ((.def_49 (and .def_47 .def_48)))
(let ((.def_51 (and .def_49 .def_50)))
(let ((.def_43 (<= nd<0> 0)))
(let ((.def_44 (not .def_43)))
(let ((.def_52 (and .def_44 .def_51)))
(let ((.def_58 (and .def_52 .def_57)))
(let ((.def_108 (or .def_58 .def_107)))
(let ((.def_113 (or .def_108 .def_112)))
(let ((.def_139 (or .def_113 .def_138)))
(let ((.def_155 (or .def_139 .def_154)))
.def_155)))))))))))))))))))))))))))))))))))))))))))))))))))))))))))))))))))))))))))))))))))))))))))))))))))))))))))))
   ) (state |!{N}.next| |!{i}.next| |!{x}.next| |!{a.1}.next| |!pc[0].next| |!pc[1].next| |!pc[2].next|))))

(assert (forall ((|!{N}| Int) (|!{i}| Int) (|!{x}| Int) (|!{a.1}| (Array Int Int)) (|!pc[0]| Bool) (|!pc[1]| Bool) (|!pc[2]| Bool))
  (=> (state |!{N}| |!{i}| |!{x}| |!{a.1}| |!pc[0]| |!pc[1]| |!pc[2]|)
(let ((.def_109 (and |!pc[0]| |!pc[1]|)))
(let ((.def_34 (not |!pc[2]|)))
(let ((.def_110 (and .def_34 .def_109)))
(let ((.def_156 (not .def_110)))
.def_156))))
)))

(check-sat)
